gen	cost
1	21142
2	20869
3	20782
4	20640
5	20558
6	20337
7	20172
8	20146
9	20009
10	20006
11	19796
12	19718
13	19659
14	19517
15	19490
16	19365
17	19318
18	19205
19	19163
20	19130
21	19080
22	18927
23	18763
24	18638
25	18600
26	18536
27	18529
28	18486
29	18419
30	18369
31	18346
32	18324
33	18187
34	18148
35	18130
36	18047
37	18043
38	18019
39	17973
40	17928
41	17922
42	17916
43	17833
44	17798
45	17735
46	17733
47	17727
48	17725
49	17647
50	17647

